aux_benchmarks/lp2sat/smokers_7_5_prob.lp.lp.cnf
p cnf 326 1091
17 54 0
-17 -54 0
18 -17 0
-18 17 0
19 55 0
-19 -55 0
86 -69 0
-86 69 0
-70 -86 0
-71 -86 0
-69 -20 -85 0
-69 20 0
-70 -20 -85 0
-70 20 0
-71 -20 -85 0
-71 20 0
89 -19 0
-89 19 0
194 -89 0
-194 89 0
85 -89 0
-85 89 0
90 -22 -24 0
-90 22 0
-90 24 0
195 -90 0
-195 90 0
196 -69 -90 72 0
-196 69 0
-196 90 0
-196 -72 0
197 -93 -90 72 69 0
-197 93 0
-197 90 0
-197 -72 0
-197 -69 0
198 -93 -72 -69 -90 0
-198 93 0
-198 72 0
-198 69 0
-198 90 0
199 -70 -90 73 0
-199 70 0
-199 90 0
-199 -73 0
200 -94 -90 73 70 0
-200 94 0
-200 90 0
-200 -73 0
-200 -70 0
201 -94 -73 -70 -90 0
-201 94 0
-201 73 0
-201 70 0
-201 90 0
94 -71 -90 74 0
-94 71 0
-94 90 0
-94 -74 0
91 -90 -92 0
-91 90 0
-91 92 0
202 -91 85 0
-202 91 0
-202 -85 0
203 -72 -69 -90 0
-203 72 0
-203 69 0
-203 90 0
204 -90 72 69 0
-204 90 0
-204 -72 0
-204 -69 0
205 -95 -73 -70 -90 0
-205 95 0
-205 73 0
-205 70 0
-205 90 0
206 -95 -90 73 70 0
-206 95 0
-206 90 0
-206 -73 0
-206 -70 0
97 -69 -90 72 0
-97 69 0
-97 90 0
-97 -72 0
207 -95 -70 -90 73 0
-207 95 0
-207 70 0
-207 90 0
-207 -73 0
208 -97 -73 -90 70 0
-208 97 0
-208 73 0
-208 90 0
-208 -70 0
209 -96 -71 -90 74 0
-209 96 0
-209 71 0
-209 90 0
-209 -74 0
210 -98 -74 -90 71 0
-210 98 0
-210 74 0
-210 90 0
-210 -71 0
-91 99 0
211 -90 -99 0
-211 90 0
-211 99 0
100 -27 -28 0
-100 27 0
-100 28 0
212 -100 0
-212 100 0
213 -69 -100 75 0
-213 69 0
-213 100 0
-213 -75 0
214 -103 -100 75 69 0
-214 103 0
-214 100 0
-214 -75 0
-214 -69 0
215 -103 -75 -69 -100 0
-215 103 0
-215 75 0
-215 69 0
-215 100 0
216 -70 -100 76 0
-216 70 0
-216 100 0
-216 -76 0
217 -104 -100 76 70 0
-217 104 0
-217 100 0
-217 -76 0
-217 -70 0
218 -104 -76 -70 -100 0
-218 104 0
-218 76 0
-218 70 0
-218 100 0
104 -71 -100 77 0
-104 71 0
-104 100 0
-104 -77 0
101 -100 -102 0
-101 100 0
-101 102 0
219 -101 85 0
-219 101 0
-219 -85 0
220 -75 -69 -100 0
-220 75 0
-220 69 0
-220 100 0
221 -100 75 69 0
-221 100 0
-221 -75 0
-221 -69 0
222 -105 -76 -70 -100 0
-222 105 0
-222 76 0
-222 70 0
-222 100 0
223 -105 -100 76 70 0
-223 105 0
-223 100 0
-223 -76 0
-223 -70 0
107 -69 -100 75 0
-107 69 0
-107 100 0
-107 -75 0
224 -105 -70 -100 76 0
-224 105 0
-224 70 0
-224 100 0
-224 -76 0
225 -107 -76 -100 70 0
-225 107 0
-225 76 0
-225 100 0
-225 -70 0
226 -106 -71 -100 77 0
-226 106 0
-226 71 0
-226 100 0
-226 -77 0
227 -108 -77 -100 71 0
-227 108 0
-227 77 0
-227 100 0
-227 -71 0
-101 109 0
228 -100 -109 0
-228 100 0
-228 109 0
110 -31 -32 0
-110 31 0
-110 32 0
229 -110 0
-229 110 0
230 -69 -110 78 0
-230 69 0
-230 110 0
-230 -78 0
231 -113 -110 78 69 0
-231 113 0
-231 110 0
-231 -78 0
-231 -69 0
232 -113 -78 -69 -110 0
-232 113 0
-232 78 0
-232 69 0
-232 110 0
233 -70 -110 79 0
-233 70 0
-233 110 0
-233 -79 0
234 -114 -110 79 70 0
-234 114 0
-234 110 0
-234 -79 0
-234 -70 0
235 -114 -79 -70 -110 0
-235 114 0
-235 79 0
-235 70 0
-235 110 0
114 -71 -110 80 0
-114 71 0
-114 110 0
-114 -80 0
111 -110 -112 0
-111 110 0
-111 112 0
236 -111 85 0
-236 111 0
-236 -85 0
237 -78 -69 -110 0
-237 78 0
-237 69 0
-237 110 0
238 -110 78 69 0
-238 110 0
-238 -78 0
-238 -69 0
239 -115 -79 -70 -110 0
-239 115 0
-239 79 0
-239 70 0
-239 110 0
240 -115 -110 79 70 0
-240 115 0
-240 110 0
-240 -79 0
-240 -70 0
117 -69 -110 78 0
-117 69 0
-117 110 0
-117 -78 0
241 -115 -70 -110 79 0
-241 115 0
-241 70 0
-241 110 0
-241 -79 0
242 -117 -79 -110 70 0
-242 117 0
-242 79 0
-242 110 0
-242 -70 0
243 -116 -71 -110 80 0
-243 116 0
-243 71 0
-243 110 0
-243 -80 0
244 -118 -80 -110 71 0
-244 118 0
-244 80 0
-244 110 0
-244 -71 0
-111 119 0
245 -110 -119 0
-245 110 0
-245 119 0
120 -35 -36 0
-120 35 0
-120 36 0
246 -120 0
-246 120 0
247 -69 -120 81 0
-247 69 0
-247 120 0
-247 -81 0
248 -123 -120 81 69 0
-248 123 0
-248 120 0
-248 -81 0
-248 -69 0
249 -123 -81 -69 -120 0
-249 123 0
-249 81 0
-249 69 0
-249 120 0
250 -70 -120 82 0
-250 70 0
-250 120 0
-250 -82 0
251 -124 -120 82 70 0
-251 124 0
-251 120 0
-251 -82 0
-251 -70 0
252 -124 -82 -70 -120 0
-252 124 0
-252 82 0
-252 70 0
-252 120 0
124 -71 -120 83 0
-124 71 0
-124 120 0
-124 -83 0
121 -120 -122 0
-121 120 0
-121 122 0
253 -121 85 0
-253 121 0
-253 -85 0
254 -81 -69 -120 0
-254 81 0
-254 69 0
-254 120 0
255 -120 81 69 0
-255 120 0
-255 -81 0
-255 -69 0
256 -125 -82 -70 -120 0
-256 125 0
-256 82 0
-256 70 0
-256 120 0
257 -125 -120 82 70 0
-257 125 0
-257 120 0
-257 -82 0
-257 -70 0
127 -69 -120 81 0
-127 69 0
-127 120 0
-127 -81 0
258 -125 -70 -120 82 0
-258 125 0
-258 70 0
-258 120 0
-258 -82 0
259 -127 -82 -120 70 0
-259 127 0
-259 82 0
-259 120 0
-259 -70 0
260 -126 -71 -120 83 0
-260 126 0
-260 71 0
-260 120 0
-260 -83 0
261 -128 -83 -120 71 0
-261 128 0
-261 83 0
-261 120 0
-261 -71 0
-121 129 0
262 -120 -129 0
-262 120 0
-262 129 0
-87 88 0
-20 87 85 0
21 56 0
-21 -56 0
132 -72 0
-132 72 0
-73 -132 0
-74 -132 0
-72 -22 -131 0
-72 22 0
-73 -22 -131 0
-73 22 0
-74 -22 -131 0
-74 22 0
135 -21 0
-135 21 0
263 -135 0
-263 135 0
131 -135 0
-131 135 0
136 -20 -23 0
-136 20 0
-136 23 0
264 -136 0
-264 136 0
265 -72 -136 69 0
-265 72 0
-265 136 0
-265 -69 0
266 -139 -136 69 72 0
-266 139 0
-266 136 0
-266 -69 0
-266 -72 0
267 -139 -69 -72 -136 0
-267 139 0
-267 69 0
-267 72 0
-267 136 0
268 -73 -136 70 0
-268 73 0
-268 136 0
-268 -70 0
269 -140 -136 70 73 0
-269 140 0
-269 136 0
-269 -70 0
-269 -73 0
270 -140 -70 -73 -136 0
-270 140 0
-270 70 0
-270 73 0
-270 136 0
140 -74 -136 71 0
-140 74 0
-140 136 0
-140 -71 0
137 -136 -138 0
-137 136 0
-137 138 0
133 -137 131 0
-133 137 0
-133 -131 0
271 -69 -72 -136 0
-271 69 0
-271 72 0
-271 136 0
272 -136 69 72 0
-272 136 0
-272 -69 0
-272 -72 0
273 -141 -70 -73 -136 0
-273 141 0
-273 70 0
-273 73 0
-273 136 0
274 -141 -136 70 73 0
-274 141 0
-274 136 0
-274 -70 0
-274 -73 0
143 -72 -136 69 0
-143 72 0
-143 136 0
-143 -69 0
275 -141 -73 -136 70 0
-275 141 0
-275 73 0
-275 136 0
-275 -70 0
276 -143 -70 -136 73 0
-276 143 0
-276 70 0
-276 136 0
-276 -73 0
277 -142 -74 -136 71 0
-277 142 0
-277 74 0
-277 136 0
-277 -71 0
278 -144 -71 -136 74 0
-278 144 0
-278 71 0
-278 136 0
-278 -74 0
-137 145 0
134 -136 -145 0
-134 136 0
-134 145 0
-133 134 0
-22 133 131 0
23 57 0
-23 -57 0
24 58 0
-24 -58 0
25 59 0
-25 -59 0
26 60 0
-26 -60 0
148 -75 0
-148 75 0
-76 -148 0
-77 -148 0
-75 -27 -147 0
-75 27 0
-76 -27 -147 0
-76 27 0
-77 -27 -147 0
-77 27 0
151 -26 0
-151 26 0
279 -151 0
-279 151 0
147 -151 0
-147 151 0
152 -20 -25 0
-152 20 0
-152 25 0
280 -152 0
-280 152 0
281 -75 -152 69 0
-281 75 0
-281 152 0
-281 -69 0
282 -155 -152 69 75 0
-282 155 0
-282 152 0
-282 -69 0
-282 -75 0
283 -155 -69 -75 -152 0
-283 155 0
-283 69 0
-283 75 0
-283 152 0
284 -76 -152 70 0
-284 76 0
-284 152 0
-284 -70 0
285 -156 -152 70 76 0
-285 156 0
-285 152 0
-285 -70 0
-285 -76 0
286 -156 -70 -76 -152 0
-286 156 0
-286 70 0
-286 76 0
-286 152 0
156 -77 -152 71 0
-156 77 0
-156 152 0
-156 -71 0
153 -152 -154 0
-153 152 0
-153 154 0
149 -153 147 0
-149 153 0
-149 -147 0
287 -69 -75 -152 0
-287 69 0
-287 75 0
-287 152 0
288 -152 69 75 0
-288 152 0
-288 -69 0
-288 -75 0
289 -157 -70 -76 -152 0
-289 157 0
-289 70 0
-289 76 0
-289 152 0
290 -157 -152 70 76 0
-290 157 0
-290 152 0
-290 -70 0
-290 -76 0
159 -75 -152 69 0
-159 75 0
-159 152 0
-159 -69 0
291 -157 -76 -152 70 0
-291 157 0
-291 76 0
-291 152 0
-291 -70 0
292 -159 -70 -152 76 0
-292 159 0
-292 70 0
-292 152 0
-292 -76 0
293 -158 -77 -152 71 0
-293 158 0
-293 77 0
-293 152 0
-293 -71 0
294 -160 -71 -152 77 0
-294 160 0
-294 71 0
-294 152 0
-294 -77 0
-153 161 0
150 -152 -161 0
-150 152 0
-150 161 0
-149 150 0
-27 149 147 0
28 61 0
-28 -61 0
29 62 0
-29 -62 0
30 63 0
-30 -63 0
164 -78 0
-164 78 0
-79 -164 0
-80 -164 0
-78 -31 -163 0
-78 31 0
-79 -31 -163 0
-79 31 0
-80 -31 -163 0
-80 31 0
167 -30 0
-167 30 0
295 -167 0
-295 167 0
163 -167 0
-163 167 0
168 -20 -29 0
-168 20 0
-168 29 0
296 -168 0
-296 168 0
297 -78 -168 69 0
-297 78 0
-297 168 0
-297 -69 0
298 -171 -168 69 78 0
-298 171 0
-298 168 0
-298 -69 0
-298 -78 0
299 -171 -69 -78 -168 0
-299 171 0
-299 69 0
-299 78 0
-299 168 0
300 -79 -168 70 0
-300 79 0
-300 168 0
-300 -70 0
301 -172 -168 70 79 0
-301 172 0
-301 168 0
-301 -70 0
-301 -79 0
302 -172 -70 -79 -168 0
-302 172 0
-302 70 0
-302 79 0
-302 168 0
172 -80 -168 71 0
-172 80 0
-172 168 0
-172 -71 0
169 -168 -170 0
-169 168 0
-169 170 0
165 -169 163 0
-165 169 0
-165 -163 0
303 -69 -78 -168 0
-303 69 0
-303 78 0
-303 168 0
304 -168 69 78 0
-304 168 0
-304 -69 0
-304 -78 0
305 -173 -70 -79 -168 0
-305 173 0
-305 70 0
-305 79 0
-305 168 0
306 -173 -168 70 79 0
-306 173 0
-306 168 0
-306 -70 0
-306 -79 0
175 -78 -168 69 0
-175 78 0
-175 168 0
-175 -69 0
307 -173 -79 -168 70 0
-307 173 0
-307 79 0
-307 168 0
-307 -70 0
308 -175 -70 -168 79 0
-308 175 0
-308 70 0
-308 168 0
-308 -79 0
309 -174 -80 -168 71 0
-309 174 0
-309 80 0
-309 168 0
-309 -71 0
310 -176 -71 -168 80 0
-310 176 0
-310 71 0
-310 168 0
-310 -80 0
-169 177 0
166 -168 -177 0
-166 168 0
-166 177 0
-165 166 0
-31 165 163 0
32 64 0
-32 -64 0
33 65 0
-33 -65 0
34 66 0
-34 -66 0
180 -81 0
-180 81 0
-82 -180 0
-83 -180 0
-81 -35 -179 0
-81 35 0
-82 -35 -179 0
-82 35 0
-83 -35 -179 0
-83 35 0
183 -34 0
-183 34 0
311 -183 0
-311 183 0
179 -183 0
-179 183 0
184 -20 -33 0
-184 20 0
-184 33 0
312 -184 0
-312 184 0
313 -81 -184 69 0
-313 81 0
-313 184 0
-313 -69 0
314 -187 -184 69 81 0
-314 187 0
-314 184 0
-314 -69 0
-314 -81 0
315 -187 -69 -81 -184 0
-315 187 0
-315 69 0
-315 81 0
-315 184 0
316 -82 -184 70 0
-316 82 0
-316 184 0
-316 -70 0
317 -188 -184 70 82 0
-317 188 0
-317 184 0
-317 -70 0
-317 -82 0
318 -188 -70 -82 -184 0
-318 188 0
-318 70 0
-318 82 0
-318 184 0
188 -83 -184 71 0
-188 83 0
-188 184 0
-188 -71 0
185 -184 -186 0
-185 184 0
-185 186 0
181 -185 179 0
-181 185 0
-181 -179 0
319 -69 -81 -184 0
-319 69 0
-319 81 0
-319 184 0
320 -184 69 81 0
-320 184 0
-320 -69 0
-320 -81 0
321 -189 -70 -82 -184 0
-321 189 0
-321 70 0
-321 82 0
-321 184 0
322 -189 -184 70 82 0
-322 189 0
-322 184 0
-322 -70 0
-322 -82 0
191 -81 -184 69 0
-191 81 0
-191 184 0
-191 -69 0
323 -189 -82 -184 70 0
-323 189 0
-323 82 0
-323 184 0
-323 -70 0
324 -191 -70 -184 82 0
-324 191 0
-324 70 0
-324 184 0
-324 -82 0
325 -190 -83 -184 71 0
-325 190 0
-325 83 0
-325 184 0
-325 -71 0
326 -192 -71 -184 83 0
-326 192 0
-326 71 0
-326 184 0
-326 -83 0
-185 193 0
182 -184 -193 0
-182 184 0
-182 193 0
-181 182 0
-35 181 179 0
36 67 0
-36 -67 0
37 68 0
-37 -68 0
38 -37 0
-38 37 0
39 0
40 0
41 0
42 0
43 0
44 0
45 0
46 0
47 0
48 0
49 0
50 0
51 0
52 0
53 0
54 17 0
-54 -17 0
55 19 0
-55 -19 0
56 21 0
-56 -21 0
57 23 0
-57 -23 0
58 24 0
-58 -24 0
59 25 0
-59 -25 0
60 26 0
-60 -26 0
61 28 0
-61 -28 0
62 29 0
-62 -29 0
63 30 0
-63 -30 0
64 32 0
-64 -32 0
65 33 0
-65 -33 0
66 34 0
-66 -34 0
67 36 0
-67 -36 0
68 37 0
-68 -37 0
-1 0
-1 0
-2 0
-3 0
-4 0
-5 0
-6 0
-7 0
-8 0
-9 0
-10 0
-11 0
-12 0
-13 0
-14 0
-15 0
-16 0
-20 194 195 212 229 246 0
20 -194 0
20 -195 0
20 -212 0
20 -229 0
20 -246 0
-22 263 264 0
22 -263 0
22 -264 0
-27 279 280 0
27 -279 0
27 -280 0
-31 295 296 0
31 -295 0
31 -296 0
-35 311 312 0
35 -311 0
35 -312 0
-84 0
-87 202 219 236 253 0
87 -202 0
87 -219 0
87 -236 0
87 -253 0
-88 211 228 245 262 0
88 -211 0
88 -228 0
88 -245 0
88 -262 0
-92 196 197 198 0
92 -196 0
92 -197 0
92 -198 0
-93 199 200 201 0
93 -199 0
93 -200 0
93 -201 0
-95 203 204 0
95 -203 0
95 -204 0
-96 205 206 0
96 -205 0
96 -206 0
-98 207 208 0
98 -207 0
98 -208 0
-99 209 210 0
99 -209 0
99 -210 0
-102 213 214 215 0
102 -213 0
102 -214 0
102 -215 0
-103 216 217 218 0
103 -216 0
103 -217 0
103 -218 0
-105 220 221 0
105 -220 0
105 -221 0
-106 222 223 0
106 -222 0
106 -223 0
-108 224 225 0
108 -224 0
108 -225 0
-109 226 227 0
109 -226 0
109 -227 0
-112 230 231 232 0
112 -230 0
112 -231 0
112 -232 0
-113 233 234 235 0
113 -233 0
113 -234 0
113 -235 0
-115 237 238 0
115 -237 0
115 -238 0
-116 239 240 0
116 -239 0
116 -240 0
-118 241 242 0
118 -241 0
118 -242 0
-119 243 244 0
119 -243 0
119 -244 0
-122 247 248 249 0
122 -247 0
122 -248 0
122 -249 0
-123 250 251 252 0
123 -250 0
123 -251 0
123 -252 0
-125 254 255 0
125 -254 0
125 -255 0
-126 256 257 0
126 -256 0
126 -257 0
-128 258 259 0
128 -258 0
128 -259 0
-129 260 261 0
129 -260 0
129 -261 0
-130 0
-138 265 266 267 0
138 -265 0
138 -266 0
138 -267 0
-139 268 269 270 0
139 -268 0
139 -269 0
139 -270 0
-141 271 272 0
141 -271 0
141 -272 0
-142 273 274 0
142 -273 0
142 -274 0
-144 275 276 0
144 -275 0
144 -276 0
-145 277 278 0
145 -277 0
145 -278 0
-146 0
-154 281 282 283 0
154 -281 0
154 -282 0
154 -283 0
-155 284 285 286 0
155 -284 0
155 -285 0
155 -286 0
-157 287 288 0
157 -287 0
157 -288 0
-158 289 290 0
158 -289 0
158 -290 0
-160 291 292 0
160 -291 0
160 -292 0
-161 293 294 0
161 -293 0
161 -294 0
-162 0
-170 297 298 299 0
170 -297 0
170 -298 0
170 -299 0
-171 300 301 302 0
171 -300 0
171 -301 0
171 -302 0
-173 303 304 0
173 -303 0
173 -304 0
-174 305 306 0
174 -305 0
174 -306 0
-176 307 308 0
176 -307 0
176 -308 0
-177 309 310 0
177 -309 0
177 -310 0
-178 0
-186 313 314 315 0
186 -313 0
186 -314 0
186 -315 0
-187 316 317 318 0
187 -316 0
187 -317 0
187 -318 0
-189 319 320 0
189 -319 0
189 -320 0
-190 321 322 0
190 -321 0
190 -322 0
-192 323 324 0
192 -323 0
192 -324 0
-193 325 326 0
193 -325 0
193 -326 0
c p auxilliary 1 2 3 4 5 6 7 8 9 10 11 12 13 14 15 16 54 55 56 57 58 59 60 61 62 63 64 65 66 67 68 69 70 71 72 73 74 75 76 77 78 79 80 81 82 83 84 85 86 87 88 89 90 91 92 93 94 95 96 97 98 99 100 101 102 103 104 105 106 107 108 109 110 111 112 113 114 115 116 117 118 119 120 121 122 123 124 125 126 127 128 129 130 131 132 133 134 135 136 137 138 139 140 141 142 143 144 145 146 147 148 149 150 151 152 153 154 155 156 157 158 159 160 161 162 163 164 165 166 167 168 169 170 171 172 173 174 175 176 177 178 179 180 181 182 183 184 185 186 187 188 189 190 191 192 193 194 195 196 197 198 199 200 201 202 203 204 205 206 207 208 209 210 211 212 213 214 215 216 217 218 219 220 221 222 223 224 225 226 227 228 229 230 231 232 233 234 235 236 237 238 239 240 241 242 243 244 245 246 247 248 249 250 251 252 253 254 255 256 257 258 259 260 261 262 263 264 265 266 267 268 269 270 271 272 273 274 275 276 277 278 279 280 281 282 283 284 285 286 287 288 289 290 291 292 293 294 295 296 297 298 299 300 301 302 303 304 305 306 307 308 309 310 311 312 313 314 315 316 317 318 319 320 321 322 323 324 325 326 0
