aux_benchmarks/smokers/smokers_7_5_prob.lp.cnf
p cnf 83 137
42 0
43 0
44 0
45 0
46 0
47 0
48 0
49 0
50 0
51 0
52 0
53 0
54 0
55 0
56 0
57 -30 -26 0
-57 30 0
-57 26 0
58 -38 0
-58 38 0
59 -40 0
-59 40 0
60 -31 -26 0
-60 31 0
-60 26 0
61 -32 -26 0
-61 32 0
-61 26 0
62 -41 0
-62 41 0
63 -23 0
-63 23 0
64 -39 0
-64 39 0
65 -33 -26 0
-65 33 0
-65 26 0
66 -27 0
-66 27 0
67 -37 -38 0
-67 37 0
-67 38 0
68 -35 -41 0
-68 35 0
-68 41 0
69 -36 -40 0
-69 36 0
-69 40 0
70 -34 -39 0
-70 34 0
-70 39 0
71 -29 0
-71 29 0
72 -17 0
-72 17 0
73 -25 0
-73 25 0
74 -18 0
-74 18 0
75 -21 0
-75 21 0
-76 61 62 0
76 -61 0
76 -62 0
-41 75 0
41 -75 0
-20 76 0
20 -76 0
-77 68 69 0
77 -68 0
77 -69 0
-40 74 0
40 -74 0
-78 59 60 0
78 -59 0
78 -60 0
-79 57 58 0
79 -57 0
79 -58 0
-16 79 0
16 -79 0
-80 66 67 0
80 -66 0
80 -67 0
-19 78 0
19 -78 0
-38 72 0
38 -72 0
-81 77 80 0
81 -77 0
81 -80 0
-82 65 64 0
82 -65 0
82 -64 0
-24 82 0
24 -82 0
-83 81 70 0
83 -81 0
83 -70 0
-26 83 0
26 -83 0
-39 73 0
39 -73 0
-28 71 0
28 -71 0
-1 42 0
1 -42 0
-2 43 0
2 -43 0
-6 47 0
6 -47 0
-7 48 0
7 -48 0
-8 49 0
8 -49 0
-9 50 0
9 -50 0
-3 44 0
3 -44 0
-10 51 0
10 -51 0
-11 52 0
11 -52 0
-12 53 0
12 -53 0
-13 54 0
13 -54 0
-4 45 0
4 -45 0
-14 55 0
14 -55 0
-15 56 0
15 -56 0
-5 46 0
5 -46 0
-22 63 0
22 -63 0
c p weight 1 1.0;1.0;1.0;1.0;1.0;1.0;1.0 0
c p weight -1 1.0;1.0;1.0;1.0;1.0;1.0;1.0 0
c p weight 2 1.0;1.0;1.0;1.0;1.0;1.0;1.0 0
c p weight -2 1.0;1.0;1.0;1.0;1.0;1.0;1.0 0
c p weight 3 1.0;1.0;1.0;1.0;1.0;1.0;1.0 0
c p weight -3 1.0;1.0;1.0;1.0;1.0;1.0;1.0 0
c p weight 4 1.0;1.0;1.0;1.0;1.0;1.0;1.0 0
c p weight -4 1.0;1.0;1.0;1.0;1.0;1.0;1.0 0
c p weight 5 1.0;1.0;1.0;1.0;1.0;1.0;1.0 0
c p weight -5 1.0;1.0;1.0;1.0;1.0;1.0;1.0 0
c p weight 6 1.0;1.0;1.0;1.0;1.0;1.0;1.0 0
c p weight -6 1.0;1.0;1.0;1.0;1.0;1.0;1.0 0
c p weight 7 1.0;1.0;1.0;1.0;1.0;1.0;1.0 0
c p weight -7 1.0;1.0;1.0;1.0;1.0;1.0;1.0 0
c p weight 8 1.0;1.0;1.0;1.0;1.0;1.0;1.0 0
c p weight -8 1.0;1.0;1.0;1.0;1.0;1.0;1.0 0
c p weight 9 1.0;1.0;1.0;1.0;1.0;1.0;1.0 0
c p weight -9 1.0;1.0;1.0;1.0;1.0;1.0;1.0 0
c p weight 10 1.0;1.0;1.0;1.0;1.0;1.0;1.0 0
c p weight -10 1.0;1.0;1.0;1.0;1.0;1.0;1.0 0
c p weight 11 1.0;1.0;1.0;1.0;1.0;1.0;1.0 0
c p weight -11 1.0;1.0;1.0;1.0;1.0;1.0;1.0 0
c p weight 12 1.0;1.0;1.0;1.0;1.0;1.0;1.0 0
c p weight -12 1.0;1.0;1.0;1.0;1.0;1.0;1.0 0
c p weight 13 1.0;1.0;1.0;1.0;1.0;1.0;1.0 0
c p weight -13 1.0;1.0;1.0;1.0;1.0;1.0;1.0 0
c p weight 14 1.0;1.0;1.0;1.0;1.0;1.0;1.0 0
c p weight -14 1.0;1.0;1.0;1.0;1.0;1.0;1.0 0
c p weight 15 1.0;1.0;1.0;1.0;1.0;1.0;1.0 0
c p weight -15 1.0;1.0;1.0;1.0;1.0;1.0;1.0 0
c p weight 16 1.0;1.0;1.0;1.0;1.0;1.0;1.0 0
c p weight -16 0.0;1.0;1.0;1.0;1.0;1.0;1.0 0
c p weight 17 0.5;0.5;0.5;0.5;0.5;0.5;0.5 0
c p weight -17 0.5;0.5;0.5;0.5;0.5;0.5;0.5 0
c p weight 18 0.5;0.5;0.5;0.5;0.5;0.5;0.5 0
c p weight -18 0.5;0.5;0.5;0.5;0.5;0.5;0.5 0
c p weight 19 1.0;1.0;1.0;1.0;1.0;1.0;1.0 0
c p weight -19 1.0;0.0;1.0;1.0;1.0;1.0;1.0 0
c p weight 20 1.0;1.0;1.0;1.0;1.0;1.0;1.0 0
c p weight -20 1.0;1.0;0.0;1.0;1.0;1.0;1.0 0
c p weight 21 0.5;0.5;0.5;0.5;0.5;0.5;0.5 0
c p weight -21 0.5;0.5;0.5;0.5;0.5;0.5;0.5 0
c p weight 22 1.0;1.0;1.0;1.0;1.0;1.0;1.0 0
c p weight -22 1.0;1.0;1.0;0.0;1.0;1.0;1.0 0
c p weight 23 0.5;0.5;0.5;0.5;0.5;0.5;0.5 0
c p weight -23 0.5;0.5;0.5;0.5;0.5;0.5;0.5 0
c p weight 24 1.0;1.0;1.0;1.0;1.0;1.0;1.0 0
c p weight -24 1.0;1.0;1.0;1.0;0.0;1.0;1.0 0
c p weight 25 0.5;0.5;0.5;0.5;0.5;0.5;0.5 0
c p weight -25 0.5;0.5;0.5;0.5;0.5;0.5;0.5 0
c p weight 26 1.0;1.0;1.0;1.0;1.0;1.0;1.0 0
c p weight -26 1.0;1.0;1.0;1.0;1.0;0.0;1.0 0
c p weight 27 0.5;0.5;0.5;0.5;0.5;0.5;0.5 0
c p weight -27 0.5;0.5;0.5;0.5;0.5;0.5;0.5 0
c p weight 28 1.0;1.0;1.0;1.0;1.0;1.0;1.0 0
c p weight -28 1.0;1.0;1.0;1.0;1.0;1.0;0.0 0
c p weight 29 0.5;0.5;0.5;0.5;0.5;0.5;0.5 0
c p weight -29 0.5;0.5;0.5;0.5;0.5;0.5;0.5 0
c p weight 30 0.5;0.5;0.5;0.5;0.5;0.5;0.5 0
c p weight -30 0.5;0.5;0.5;0.5;0.5;0.5;0.5 0
c p weight 31 0.5;0.5;0.5;0.5;0.5;0.5;0.5 0
c p weight -31 0.5;0.5;0.5;0.5;0.5;0.5;0.5 0
c p weight 32 0.5;0.5;0.5;0.5;0.5;0.5;0.5 0
c p weight -32 0.5;0.5;0.5;0.5;0.5;0.5;0.5 0
c p weight 33 0.5;0.5;0.5;0.5;0.5;0.5;0.5 0
c p weight -33 0.5;0.5;0.5;0.5;0.5;0.5;0.5 0
c p weight 34 0.5;0.5;0.5;0.5;0.5;0.5;0.5 0
c p weight -34 0.5;0.5;0.5;0.5;0.5;0.5;0.5 0
c p weight 35 0.5;0.5;0.5;0.5;0.5;0.5;0.5 0
c p weight -35 0.5;0.5;0.5;0.5;0.5;0.5;0.5 0
c p weight 36 0.5;0.5;0.5;0.5;0.5;0.5;0.5 0
c p weight -36 0.5;0.5;0.5;0.5;0.5;0.5;0.5 0
c p weight 37 0.5;0.5;0.5;0.5;0.5;0.5;0.5 0
c p weight -37 0.5;0.5;0.5;0.5;0.5;0.5;0.5 0
c p weight 38 1.0;1.0;1.0;1.0;1.0;1.0;1.0 0
c p weight -38 1.0;1.0;1.0;1.0;1.0;1.0;1.0 0
c p weight 39 1.0;1.0;1.0;1.0;1.0;1.0;1.0 0
c p weight -39 1.0;1.0;1.0;1.0;1.0;1.0;1.0 0
c p weight 40 1.0;1.0;1.0;1.0;1.0;1.0;1.0 0
c p weight -40 1.0;1.0;1.0;1.0;1.0;1.0;1.0 0
c p weight 41 1.0;1.0;1.0;1.0;1.0;1.0;1.0 0
c p weight -41 1.0;1.0;1.0;1.0;1.0;1.0;1.0 0
c p weight 42 1.0;1.0;1.0;1.0;1.0;1.0;1.0 0
c p weight -42 1.0;1.0;1.0;1.0;1.0;1.0;1.0 0
c p weight 43 1.0;1.0;1.0;1.0;1.0;1.0;1.0 0
c p weight -43 1.0;1.0;1.0;1.0;1.0;1.0;1.0 0
c p weight 44 1.0;1.0;1.0;1.0;1.0;1.0;1.0 0
c p weight -44 1.0;1.0;1.0;1.0;1.0;1.0;1.0 0
c p weight 45 1.0;1.0;1.0;1.0;1.0;1.0;1.0 0
c p weight -45 1.0;1.0;1.0;1.0;1.0;1.0;1.0 0
c p weight 46 1.0;1.0;1.0;1.0;1.0;1.0;1.0 0
c p weight -46 1.0;1.0;1.0;1.0;1.0;1.0;1.0 0
c p weight 47 1.0;1.0;1.0;1.0;1.0;1.0;1.0 0
c p weight -47 1.0;1.0;1.0;1.0;1.0;1.0;1.0 0
c p weight 48 1.0;1.0;1.0;1.0;1.0;1.0;1.0 0
c p weight -48 1.0;1.0;1.0;1.0;1.0;1.0;1.0 0
c p weight 49 1.0;1.0;1.0;1.0;1.0;1.0;1.0 0
c p weight -49 1.0;1.0;1.0;1.0;1.0;1.0;1.0 0
c p weight 50 1.0;1.0;1.0;1.0;1.0;1.0;1.0 0
c p weight -50 1.0;1.0;1.0;1.0;1.0;1.0;1.0 0
c p weight 51 1.0;1.0;1.0;1.0;1.0;1.0;1.0 0
c p weight -51 1.0;1.0;1.0;1.0;1.0;1.0;1.0 0
c p weight 52 1.0;1.0;1.0;1.0;1.0;1.0;1.0 0
c p weight -52 1.0;1.0;1.0;1.0;1.0;1.0;1.0 0
c p weight 53 1.0;1.0;1.0;1.0;1.0;1.0;1.0 0
c p weight -53 1.0;1.0;1.0;1.0;1.0;1.0;1.0 0
c p weight 54 1.0;1.0;1.0;1.0;1.0;1.0;1.0 0
c p weight -54 1.0;1.0;1.0;1.0;1.0;1.0;1.0 0
c p weight 55 1.0;1.0;1.0;1.0;1.0;1.0;1.0 0
c p weight -55 1.0;1.0;1.0;1.0;1.0;1.0;1.0 0
c p weight 56 1.0;1.0;1.0;1.0;1.0;1.0;1.0 0
c p weight -56 1.0;1.0;1.0;1.0;1.0;1.0;1.0 0
c p weight 57 1.0;1.0;1.0;1.0;1.0;1.0;1.0 0
c p weight -57 1.0;1.0;1.0;1.0;1.0;1.0;1.0 0
c p weight 58 1.0;1.0;1.0;1.0;1.0;1.0;1.0 0
c p weight -58 1.0;1.0;1.0;1.0;1.0;1.0;1.0 0
c p weight 59 1.0;1.0;1.0;1.0;1.0;1.0;1.0 0
c p weight -59 1.0;1.0;1.0;1.0;1.0;1.0;1.0 0
c p weight 60 1.0;1.0;1.0;1.0;1.0;1.0;1.0 0
c p weight -60 1.0;1.0;1.0;1.0;1.0;1.0;1.0 0
c p weight 61 1.0;1.0;1.0;1.0;1.0;1.0;1.0 0
c p weight -61 1.0;1.0;1.0;1.0;1.0;1.0;1.0 0
c p weight 62 1.0;1.0;1.0;1.0;1.0;1.0;1.0 0
c p weight -62 1.0;1.0;1.0;1.0;1.0;1.0;1.0 0
c p weight 63 1.0;1.0;1.0;1.0;1.0;1.0;1.0 0
c p weight -63 1.0;1.0;1.0;1.0;1.0;1.0;1.0 0
c p weight 64 1.0;1.0;1.0;1.0;1.0;1.0;1.0 0
c p weight -64 1.0;1.0;1.0;1.0;1.0;1.0;1.0 0
c p weight 65 1.0;1.0;1.0;1.0;1.0;1.0;1.0 0
c p weight -65 1.0;1.0;1.0;1.0;1.0;1.0;1.0 0
c p weight 66 1.0;1.0;1.0;1.0;1.0;1.0;1.0 0
c p weight -66 1.0;1.0;1.0;1.0;1.0;1.0;1.0 0
c p weight 67 1.0;1.0;1.0;1.0;1.0;1.0;1.0 0
c p weight -67 1.0;1.0;1.0;1.0;1.0;1.0;1.0 0
c p weight 68 1.0;1.0;1.0;1.0;1.0;1.0;1.0 0
c p weight -68 1.0;1.0;1.0;1.0;1.0;1.0;1.0 0
c p weight 69 1.0;1.0;1.0;1.0;1.0;1.0;1.0 0
c p weight -69 1.0;1.0;1.0;1.0;1.0;1.0;1.0 0
c p weight 70 1.0;1.0;1.0;1.0;1.0;1.0;1.0 0
c p weight -70 1.0;1.0;1.0;1.0;1.0;1.0;1.0 0
c p weight 71 1.0;1.0;1.0;1.0;1.0;1.0;1.0 0
c p weight -71 1.0;1.0;1.0;1.0;1.0;1.0;1.0 0
c p weight 72 1.0;1.0;1.0;1.0;1.0;1.0;1.0 0
c p weight -72 1.0;1.0;1.0;1.0;1.0;1.0;1.0 0
c p weight 73 1.0;1.0;1.0;1.0;1.0;1.0;1.0 0
c p weight -73 1.0;1.0;1.0;1.0;1.0;1.0;1.0 0
c p weight 74 1.0;1.0;1.0;1.0;1.0;1.0;1.0 0
c p weight -74 1.0;1.0;1.0;1.0;1.0;1.0;1.0 0
c p weight 75 1.0;1.0;1.0;1.0;1.0;1.0;1.0 0
c p weight -75 1.0;1.0;1.0;1.0;1.0;1.0;1.0 0
c p weight 76 1.0;1.0;1.0;1.0;1.0;1.0;1.0 0
c p weight -76 1.0;1.0;1.0;1.0;1.0;1.0;1.0 0
c p weight 77 1.0;1.0;1.0;1.0;1.0;1.0;1.0 0
c p weight -77 1.0;1.0;1.0;1.0;1.0;1.0;1.0 0
c p weight 78 1.0;1.0;1.0;1.0;1.0;1.0;1.0 0
c p weight -78 1.0;1.0;1.0;1.0;1.0;1.0;1.0 0
c p weight 79 1.0;1.0;1.0;1.0;1.0;1.0;1.0 0
c p weight -79 1.0;1.0;1.0;1.0;1.0;1.0;1.0 0
c p weight 80 1.0;1.0;1.0;1.0;1.0;1.0;1.0 0
c p weight -80 1.0;1.0;1.0;1.0;1.0;1.0;1.0 0
c p weight 81 1.0;1.0;1.0;1.0;1.0;1.0;1.0 0
c p weight -81 1.0;1.0;1.0;1.0;1.0;1.0;1.0 0
c p weight 82 1.0;1.0;1.0;1.0;1.0;1.0;1.0 0
c p weight -82 1.0;1.0;1.0;1.0;1.0;1.0;1.0 0
c p weight 83 1.0;1.0;1.0;1.0;1.0;1.0;1.0 0
c p weight -83 1.0;1.0;1.0;1.0;1.0;1.0;1.0 0
c p semirings aspmc.semirings.probabilistic 0
c p quantify 1 2 3 4 5 6 7 8 9 10 11 12 13 14 15 16 17 18 19 20 21 22 23 24 25 26 27 28 29 30 31 32 33 34 35 36 37 38 39 40 41 42 43 44 45 46 47 48 49 50 51 52 53 54 55 56 57 58 59 60 61 62 63 64 65 66 67 68 69 70 71 72 73 74 75 76 77 78 79 80 81 82 83 0
c p auxilliary 1 2 3 4 5 6 7 8 9 10 11 12 13 14 15 38 39 40 41 42 43 44 45 46 47 48 49 50 51 52 53 54 55 56 57 58 59 60 61 62 63 64 65 66 67 68 69 70 71 72 73 74 75 76 77 78 79 80 81 82 83 0
